(set-logic QF_NRA)
(set-info :source |Benchmarks generated from hycomp (https://es-static.fbk.eu/tools/hycomp/). BMC instances of non-linear hybrid automata taken from: Alessandro Cimatti, Sergio Mover, Stefano Tonetta, A quantifier-free SMT encoding of non-linear hybrid automata, FMCAD 2012 and Alessandro Cimatti, Sergio Mover, Stefano Tonetta, Quantier-free encoding of invariants for Hybrid Systems, Formal Methods in System Design. This instance solves a BMC problem of depth 4 and uses the quantifier free encoding encoding. Contacts: Sergio Mover (mover@fbk.eu), Stefano Tonetta (tonettas@fbk.eu), Alessandro Cimatti (cimatti@fbk.eu).|)
(set-info :smt-lib-version 2.0)
(set-info :category "industrial")
(set-info :status unsat)
;; MathSAT API call trace
;; generated on Mon Mar 19 10:41:09 2012
(declare-fun b.counter.3__AT1 () Bool)
(declare-fun b.EVENT.0__AT2 () Bool)
(declare-fun b.counter.1__AT2 () Bool)
(declare-fun b.counter.3__AT4 () Bool)
(declare-fun b.EVENT.1__AT0 () Bool)
(declare-fun b.x__AT0 () Real)
(declare-fun b.time__AT3 () Real)
(declare-fun b.EVENT.1__AT2 () Bool)
(declare-fun b.counter.2__AT2 () Bool)
(declare-fun b.speed_x__AT1 () Real)
(declare-fun b.delta__AT3 () Real)
(declare-fun b.speed_x__AT4 () Real)
(declare-fun b.counter.3__AT2 () Bool)
(declare-fun b.time__AT1 () Real)
(declare-fun g__AT0 () Real)
(declare-fun b.y__AT0 () Real)
(declare-fun b.EVENT.0__AT1 () Bool)
(declare-fun b.speed_y__AT1 () Real)
(declare-fun b.EVENT.0__AT3 () Bool)
(declare-fun b.speed_y__AT4 () Real)
(declare-fun b.delta__AT1 () Real)
(declare-fun b.counter.0__AT0 () Bool)
(declare-fun b.EVENT.1__AT1 () Bool)
(declare-fun b.EVENT.1__AT3 () Bool)
(declare-fun b.speed_x__AT2 () Real)
(declare-fun b.counter.1__AT0 () Bool)
(declare-fun b.delta__AT0 () Real)
(declare-fun b.speed_y__AT2 () Real)
(declare-fun b.EVENT.0__AT0 () Bool)
(declare-fun b.y__AT3 () Real)
(declare-fun b.counter.3__AT3 () Bool)
(declare-fun b.counter.0__AT3 () Bool)
(declare-fun b.x__AT1 () Real)
(declare-fun b.x__AT3 () Real)
(declare-fun b.counter.1__AT3 () Bool)
(declare-fun b.speed_y__AT0 () Real)
(declare-fun b.speed_x__AT3 () Real)
(declare-fun b.speed_y__AT3 () Real)
(declare-fun b.counter.2__AT3 () Bool)
(declare-fun b.counter.3__AT0 () Bool)
(declare-fun b.event_is_timed__AT4 () Bool)
(declare-fun b.event_is_timed__AT0 () Bool)
(declare-fun b.event_is_timed__AT2 () Bool)
(declare-fun speed_loss__AT0 () Real)
(declare-fun b.y__AT1 () Real)
(declare-fun b.time__AT4 () Real)
(declare-fun b.y__AT4 () Real)
(declare-fun b.event_is_timed__AT1 () Bool)
(declare-fun b.counter.0__AT1 () Bool)
(declare-fun b.delta__AT4 () Real)
(declare-fun b.event_is_timed__AT3 () Bool)
(declare-fun b.speed_x__AT0 () Real)
(declare-fun b.counter.0__AT4 () Bool)
(declare-fun b.x__AT4 () Real)
(declare-fun b.counter.1__AT1 () Bool)
(declare-fun b.EVENT.0__AT4 () Bool)
(declare-fun b.time__AT2 () Real)
(declare-fun b.time__AT0 () Real)
(declare-fun b.y__AT2 () Real)
(declare-fun b.counter.1__AT4 () Bool)
(declare-fun b.counter.2__AT0 () Bool)
(declare-fun b.counter.2__AT1 () Bool)
(declare-fun b.EVENT.1__AT4 () Bool)
(declare-fun b.delta__AT2 () Real)
(declare-fun b.counter.0__AT2 () Bool)
(declare-fun b.counter.2__AT4 () Bool)
(declare-fun b.x__AT2 () Real)
(assert (let ((.def_72 (* (- 1.0) g__AT0)))
(let ((.def_73 (* (/ 1 2) .def_72)))
(let ((.def_81 (* 2.0 .def_73)))
(let ((.def_87 (* (- 1.0) .def_81)))
(let ((.def_808 (* .def_87 b.delta__AT4)))
(let ((.def_809 (<= b.speed_y__AT4 .def_808)))
(let ((.def_807 (<= b.speed_y__AT4 0.0 )))
(let ((.def_810 (and .def_807 .def_809)))
(let ((.def_803 (* .def_81 b.delta__AT4)))
(let ((.def_804 (+ b.speed_y__AT4 .def_803)))
(let ((.def_805 (<= 0.0 .def_804)))
(let ((.def_802 (<= 0.0 b.speed_y__AT4)))
(let ((.def_806 (and .def_802 .def_805)))
(let ((.def_811 (or .def_806 .def_810)))
(let ((.def_797 (* b.speed_y__AT4 b.delta__AT4)))
(let ((.def_795 (* b.delta__AT4 b.delta__AT4)))
(let ((.def_796 (* .def_73 .def_795)))
(let ((.def_798 (+ .def_796 .def_797)))
(let ((.def_799 (+ b.y__AT4 .def_798)))
(let ((.def_800 (<= 0.0 .def_799)))
(let ((.def_785 (<= 0.0 b.y__AT4)))
(let ((.def_801 (and .def_785 .def_800)))
(let ((.def_812 (and .def_801 .def_811)))
(let ((.def_53 (<= g__AT0 10.0 )))
(let ((.def_52 (<= 8.0 g__AT0)))
(let ((.def_54 (and .def_52 .def_53)))
(let ((.def_813 (and .def_54 .def_812)))
(let ((.def_61 (<= speed_loss__AT0 (/ 1 2))))
(let ((.def_58 (<= (/ 1 10) speed_loss__AT0)))
(let ((.def_62 (and .def_58 .def_61)))
(let ((.def_814 (and .def_62 .def_813)))
(let ((.def_510 (not b.counter.0__AT3)))
(let ((.def_789 (or b.counter.1__AT3 .def_510)))
(let ((.def_505 (not b.counter.2__AT3)))
(let ((.def_790 (or .def_505 .def_789)))
(let ((.def_791 (or b.counter.3__AT3 .def_790)))
(let ((.def_63 (and .def_54 .def_62)))
(let ((.def_786 (and .def_63 .def_785)))
(let ((.def_782 (not b.EVENT.0__AT4)))
(let ((.def_780 (not b.EVENT.1__AT4)))
(let ((.def_783 (or .def_780 .def_782)))
(let ((.def_677 (not b.counter.1__AT4)))
(let ((.def_4 (not b.counter.0__AT4)))
(let ((.def_773 (or .def_4 .def_677)))
(let ((.def_777 (or b.counter.3__AT4 .def_773)))
(let ((.def_774 (or b.counter.2__AT4 .def_773)))
(let ((.def_8 (not b.counter.2__AT4)))
(let ((.def_772 (or .def_4 .def_8)))
(let ((.def_775 (and .def_772 .def_774)))
(let ((.def_694 (not b.counter.3__AT4)))
(let ((.def_776 (or .def_694 .def_775)))
(let ((.def_778 (and .def_776 .def_777)))
(let ((.def_784 (and .def_778 .def_783)))
(let ((.def_787 (and .def_784 .def_786)))
(let ((.def_767 (<= 0.0 b.delta__AT3)))
(let ((.def_608 (not b.EVENT.0__AT3)))
(let ((.def_606 (not b.EVENT.1__AT3)))
(let ((.def_668 (and .def_606 .def_608)))
(let ((.def_669 (not .def_668)))
(let ((.def_768 (or .def_669 .def_767)))
(let ((.def_769 (or b.EVENT.1__AT3 .def_768)))
(let ((.def_716 (= b.counter.0__AT4 b.counter.0__AT3)))
(let ((.def_714 (= b.counter.1__AT4 b.counter.1__AT3)))
(let ((.def_712 (= b.counter.2__AT4 b.counter.2__AT3)))
(let ((.def_711 (= b.counter.3__AT4 b.counter.3__AT3)))
(let ((.def_713 (and .def_711 .def_712)))
(let ((.def_715 (and .def_713 .def_714)))
(let ((.def_717 (and .def_715 .def_716)))
(let ((.def_764 (or .def_669 .def_717)))
(let ((.def_765 (or b.EVENT.1__AT3 .def_764)))
(let ((.def_724 (= b.x__AT3 b.x__AT4)))
(let ((.def_721 (= b.y__AT3 b.y__AT4)))
(let ((.def_758 (and .def_721 .def_724)))
(let ((.def_649 (= b.speed_x__AT3 b.speed_x__AT4)))
(let ((.def_759 (and .def_649 .def_758)))
(let ((.def_710 (= b.speed_y__AT3 b.speed_y__AT4)))
(let ((.def_760 (and .def_710 .def_759)))
(let ((.def_755 (= b.delta__AT3 0.0 )))
(let ((.def_756 (and .def_668 .def_755)))
(let ((.def_757 (not .def_756)))
(let ((.def_761 (or .def_757 .def_760)))
(let ((.def_762 (or b.EVENT.1__AT3 .def_761)))
(let ((.def_735 (= b.time__AT3 b.time__AT4)))
(let ((.def_747 (and .def_724 .def_735)))
(let ((.def_748 (and .def_721 .def_747)))
(let ((.def_749 (and .def_649 .def_748)))
(let ((.def_750 (and .def_710 .def_749)))
(let ((.def_751 (and .def_717 .def_750)))
(let ((.def_752 (or .def_606 .def_751)))
(let ((.def_738 (* (- 1.0) b.time__AT4)))
(let ((.def_741 (+ b.delta__AT3 .def_738)))
(let ((.def_742 (+ b.time__AT3 .def_741)))
(let ((.def_743 (= .def_742 0.0 )))
(let ((.def_744 (or .def_669 .def_743)))
(let ((.def_745 (or b.EVENT.1__AT3 .def_744)))
(let ((.def_736 (or .def_668 .def_735)))
(let ((.def_737 (or b.EVENT.1__AT3 .def_736)))
(let ((.def_746 (and .def_737 .def_745)))
(let ((.def_753 (and .def_746 .def_752)))
(let ((.def_731 (= .def_669 b.event_is_timed__AT4)))
(let ((.def_729 (= b.event_is_timed__AT3 .def_668)))
(let ((.def_732 (and .def_729 .def_731)))
(let ((.def_718 (and .def_710 .def_717)))
(let ((.def_628 (<= 0.0 b.speed_y__AT3)))
(let ((.def_672 (not .def_628)))
(let ((.def_671 (= b.y__AT3 0.0 )))
(let ((.def_673 (and .def_671 .def_672)))
(let ((.def_719 (or .def_673 .def_718)))
(let ((.def_686 (or .def_4 b.counter.0__AT3)))
(let ((.def_685 (or b.counter.0__AT4 .def_510)))
(let ((.def_687 (and .def_685 .def_686)))
(let ((.def_688 (and .def_677 .def_687)))
(let ((.def_689 (or b.counter.1__AT3 .def_688)))
(let ((.def_498 (not b.counter.1__AT3)))
(let ((.def_684 (or b.counter.1__AT4 .def_498)))
(let ((.def_690 (and .def_684 .def_689)))
(let ((.def_702 (and .def_8 .def_690)))
(let ((.def_703 (or b.counter.2__AT3 .def_702)))
(let ((.def_697 (and .def_510 .def_677)))
(let ((.def_698 (or b.counter.1__AT3 .def_697)))
(let ((.def_699 (and .def_684 .def_698)))
(let ((.def_700 (and b.counter.2__AT4 .def_699)))
(let ((.def_701 (or .def_505 .def_700)))
(let ((.def_704 (and .def_701 .def_703)))
(let ((.def_705 (and b.counter.3__AT4 .def_704)))
(let ((.def_706 (or b.counter.3__AT3 .def_705)))
(let ((.def_691 (and b.counter.2__AT4 .def_690)))
(let ((.def_692 (or b.counter.2__AT3 .def_691)))
(let ((.def_680 (or b.counter.1__AT4 b.counter.1__AT3)))
(let ((.def_678 (and b.counter.0__AT4 .def_677)))
(let ((.def_679 (or .def_498 .def_678)))
(let ((.def_681 (and .def_679 .def_680)))
(let ((.def_682 (and .def_8 .def_681)))
(let ((.def_683 (or .def_505 .def_682)))
(let ((.def_693 (and .def_683 .def_692)))
(let ((.def_695 (and .def_693 .def_694)))
(let ((.def_520 (not b.counter.3__AT3)))
(let ((.def_696 (or .def_520 .def_695)))
(let ((.def_707 (and .def_696 .def_706)))
(let ((.def_473 (* (- 1.0) b.speed_y__AT3)))
(let ((.def_132 (* (- 1.0) speed_loss__AT0)))
(let ((.def_133 (+ 1.0 .def_132)))
(let ((.def_675 (* .def_133 .def_473)))
(let ((.def_676 (= b.speed_y__AT4 .def_675)))
(let ((.def_708 (and .def_676 .def_707)))
(let ((.def_674 (not .def_673)))
(let ((.def_709 (or .def_674 .def_708)))
(let ((.def_720 (and .def_709 .def_719)))
(let ((.def_722 (and .def_720 .def_721)))
(let ((.def_723 (and .def_649 .def_722)))
(let ((.def_725 (and .def_723 .def_724)))
(let ((.def_726 (or .def_668 .def_725)))
(let ((.def_727 (or b.EVENT.1__AT3 .def_726)))
(let ((.def_659 (* (- 1.0) b.y__AT4)))
(let ((.def_623 (* b.speed_y__AT3 b.delta__AT3)))
(let ((.def_663 (+ .def_623 .def_659)))
(let ((.def_621 (* b.delta__AT3 b.delta__AT3)))
(let ((.def_622 (* .def_73 .def_621)))
(let ((.def_664 (+ .def_622 .def_663)))
(let ((.def_665 (+ b.y__AT3 .def_664)))
(let ((.def_666 (= .def_665 0.0 )))
(let ((.def_653 (* (- 1.0) b.speed_y__AT4)))
(let ((.def_651 (* .def_72 b.delta__AT3)))
(let ((.def_654 (+ .def_651 .def_653)))
(let ((.def_655 (+ b.speed_y__AT3 .def_654)))
(let ((.def_656 (= .def_655 0.0 )))
(let ((.def_644 (* (- 1.0) b.x__AT4)))
(let ((.def_642 (* b.speed_x__AT3 b.delta__AT3)))
(let ((.def_645 (+ .def_642 .def_644)))
(let ((.def_646 (+ b.x__AT3 .def_645)))
(let ((.def_647 (= .def_646 0.0 )))
(let ((.def_650 (and .def_647 .def_649)))
(let ((.def_657 (and .def_650 .def_656)))
(let ((.def_667 (and .def_657 .def_666)))
(let ((.def_670 (or .def_667 .def_669)))
(let ((.def_728 (and .def_670 .def_727)))
(let ((.def_733 (and .def_728 .def_732)))
(let ((.def_754 (and .def_733 .def_753)))
(let ((.def_763 (and .def_754 .def_762)))
(let ((.def_766 (and .def_763 .def_765)))
(let ((.def_770 (and .def_766 .def_769)))
(let ((.def_771 (and .def_606 .def_770)))
(let ((.def_788 (and .def_771 .def_787)))
(let ((.def_792 (and .def_788 .def_791)))
(let ((.def_634 (* .def_87 b.delta__AT3)))
(let ((.def_635 (<= b.speed_y__AT3 .def_634)))
(let ((.def_633 (<= b.speed_y__AT3 0.0 )))
(let ((.def_636 (and .def_633 .def_635)))
(let ((.def_629 (* .def_81 b.delta__AT3)))
(let ((.def_630 (+ b.speed_y__AT3 .def_629)))
(let ((.def_631 (<= 0.0 .def_630)))
(let ((.def_632 (and .def_628 .def_631)))
(let ((.def_637 (or .def_632 .def_636)))
(let ((.def_624 (+ .def_622 .def_623)))
(let ((.def_625 (+ b.y__AT3 .def_624)))
(let ((.def_626 (<= 0.0 .def_625)))
(let ((.def_611 (<= 0.0 b.y__AT3)))
(let ((.def_627 (and .def_611 .def_626)))
(let ((.def_638 (and .def_627 .def_637)))
(let ((.def_639 (and .def_54 .def_638)))
(let ((.def_640 (and .def_62 .def_639)))
(let ((.def_330 (not b.counter.0__AT2)))
(let ((.def_615 (or b.counter.1__AT2 .def_330)))
(let ((.def_325 (not b.counter.2__AT2)))
(let ((.def_616 (or .def_325 .def_615)))
(let ((.def_617 (or b.counter.3__AT2 .def_616)))
(let ((.def_612 (and .def_63 .def_611)))
(let ((.def_609 (or .def_606 .def_608)))
(let ((.def_599 (or .def_498 .def_510)))
(let ((.def_603 (or b.counter.3__AT3 .def_599)))
(let ((.def_600 (or b.counter.2__AT3 .def_599)))
(let ((.def_598 (or .def_505 .def_510)))
(let ((.def_601 (and .def_598 .def_600)))
(let ((.def_602 (or .def_520 .def_601)))
(let ((.def_604 (and .def_602 .def_603)))
(let ((.def_610 (and .def_604 .def_609)))
(let ((.def_613 (and .def_610 .def_612)))
(let ((.def_593 (<= 0.0 b.delta__AT2)))
(let ((.def_428 (not b.EVENT.0__AT2)))
(let ((.def_426 (not b.EVENT.1__AT2)))
(let ((.def_488 (and .def_426 .def_428)))
(let ((.def_489 (not .def_488)))
(let ((.def_594 (or .def_489 .def_593)))
(let ((.def_595 (or b.EVENT.1__AT2 .def_594)))
(let ((.def_542 (= b.counter.0__AT2 b.counter.0__AT3)))
(let ((.def_540 (= b.counter.1__AT2 b.counter.1__AT3)))
(let ((.def_538 (= b.counter.2__AT2 b.counter.2__AT3)))
(let ((.def_537 (= b.counter.3__AT2 b.counter.3__AT3)))
(let ((.def_539 (and .def_537 .def_538)))
(let ((.def_541 (and .def_539 .def_540)))
(let ((.def_543 (and .def_541 .def_542)))
(let ((.def_590 (or .def_489 .def_543)))
(let ((.def_591 (or b.EVENT.1__AT2 .def_590)))
(let ((.def_550 (= b.x__AT2 b.x__AT3)))
(let ((.def_547 (= b.y__AT2 b.y__AT3)))
(let ((.def_584 (and .def_547 .def_550)))
(let ((.def_469 (= b.speed_x__AT2 b.speed_x__AT3)))
(let ((.def_585 (and .def_469 .def_584)))
(let ((.def_536 (= b.speed_y__AT2 b.speed_y__AT3)))
(let ((.def_586 (and .def_536 .def_585)))
(let ((.def_581 (= b.delta__AT2 0.0 )))
(let ((.def_582 (and .def_488 .def_581)))
(let ((.def_583 (not .def_582)))
(let ((.def_587 (or .def_583 .def_586)))
(let ((.def_588 (or b.EVENT.1__AT2 .def_587)))
(let ((.def_561 (= b.time__AT2 b.time__AT3)))
(let ((.def_573 (and .def_550 .def_561)))
(let ((.def_574 (and .def_547 .def_573)))
(let ((.def_575 (and .def_469 .def_574)))
(let ((.def_576 (and .def_536 .def_575)))
(let ((.def_577 (and .def_543 .def_576)))
(let ((.def_578 (or .def_426 .def_577)))
(let ((.def_564 (* (- 1.0) b.time__AT3)))
(let ((.def_567 (+ b.delta__AT2 .def_564)))
(let ((.def_568 (+ b.time__AT2 .def_567)))
(let ((.def_569 (= .def_568 0.0 )))
(let ((.def_570 (or .def_489 .def_569)))
(let ((.def_571 (or b.EVENT.1__AT2 .def_570)))
(let ((.def_562 (or .def_488 .def_561)))
(let ((.def_563 (or b.EVENT.1__AT2 .def_562)))
(let ((.def_572 (and .def_563 .def_571)))
(let ((.def_579 (and .def_572 .def_578)))
(let ((.def_557 (= .def_489 b.event_is_timed__AT3)))
(let ((.def_555 (= b.event_is_timed__AT2 .def_488)))
(let ((.def_558 (and .def_555 .def_557)))
(let ((.def_544 (and .def_536 .def_543)))
(let ((.def_448 (<= 0.0 b.speed_y__AT2)))
(let ((.def_492 (not .def_448)))
(let ((.def_491 (= b.y__AT2 0.0 )))
(let ((.def_493 (and .def_491 .def_492)))
(let ((.def_545 (or .def_493 .def_544)))
(let ((.def_511 (or b.counter.0__AT2 .def_510)))
(let ((.def_509 (or .def_330 b.counter.0__AT3)))
(let ((.def_512 (and .def_509 .def_511)))
(let ((.def_513 (and .def_498 .def_512)))
(let ((.def_514 (or b.counter.1__AT2 .def_513)))
(let ((.def_318 (not b.counter.1__AT2)))
(let ((.def_508 (or .def_318 b.counter.1__AT3)))
(let ((.def_515 (and .def_508 .def_514)))
(let ((.def_528 (and .def_505 .def_515)))
(let ((.def_529 (or b.counter.2__AT2 .def_528)))
(let ((.def_523 (and .def_330 .def_498)))
(let ((.def_524 (or b.counter.1__AT2 .def_523)))
(let ((.def_525 (and .def_508 .def_524)))
(let ((.def_526 (and b.counter.2__AT3 .def_525)))
(let ((.def_527 (or .def_325 .def_526)))
(let ((.def_530 (and .def_527 .def_529)))
(let ((.def_531 (and b.counter.3__AT3 .def_530)))
(let ((.def_532 (or b.counter.3__AT2 .def_531)))
(let ((.def_516 (and b.counter.2__AT3 .def_515)))
(let ((.def_517 (or b.counter.2__AT2 .def_516)))
(let ((.def_502 (or b.counter.1__AT2 b.counter.1__AT3)))
(let ((.def_500 (and .def_498 b.counter.0__AT3)))
(let ((.def_501 (or .def_318 .def_500)))
(let ((.def_503 (and .def_501 .def_502)))
(let ((.def_506 (and .def_503 .def_505)))
(let ((.def_507 (or .def_325 .def_506)))
(let ((.def_518 (and .def_507 .def_517)))
(let ((.def_521 (and .def_518 .def_520)))
(let ((.def_340 (not b.counter.3__AT2)))
(let ((.def_522 (or .def_340 .def_521)))
(let ((.def_533 (and .def_522 .def_532)))
(let ((.def_293 (* (- 1.0) b.speed_y__AT2)))
(let ((.def_495 (* .def_133 .def_293)))
(let ((.def_496 (= b.speed_y__AT3 .def_495)))
(let ((.def_534 (and .def_496 .def_533)))
(let ((.def_494 (not .def_493)))
(let ((.def_535 (or .def_494 .def_534)))
(let ((.def_546 (and .def_535 .def_545)))
(let ((.def_548 (and .def_546 .def_547)))
(let ((.def_549 (and .def_469 .def_548)))
(let ((.def_551 (and .def_549 .def_550)))
(let ((.def_552 (or .def_488 .def_551)))
(let ((.def_553 (or b.EVENT.1__AT2 .def_552)))
(let ((.def_479 (* (- 1.0) b.y__AT3)))
(let ((.def_443 (* b.speed_y__AT2 b.delta__AT2)))
(let ((.def_483 (+ .def_443 .def_479)))
(let ((.def_441 (* b.delta__AT2 b.delta__AT2)))
(let ((.def_442 (* .def_73 .def_441)))
(let ((.def_484 (+ .def_442 .def_483)))
(let ((.def_485 (+ b.y__AT2 .def_484)))
(let ((.def_486 (= .def_485 0.0 )))
(let ((.def_471 (* .def_72 b.delta__AT2)))
(let ((.def_474 (+ .def_471 .def_473)))
(let ((.def_475 (+ b.speed_y__AT2 .def_474)))
(let ((.def_476 (= .def_475 0.0 )))
(let ((.def_464 (* (- 1.0) b.x__AT3)))
(let ((.def_462 (* b.speed_x__AT2 b.delta__AT2)))
(let ((.def_465 (+ .def_462 .def_464)))
(let ((.def_466 (+ b.x__AT2 .def_465)))
(let ((.def_467 (= .def_466 0.0 )))
(let ((.def_470 (and .def_467 .def_469)))
(let ((.def_477 (and .def_470 .def_476)))
(let ((.def_487 (and .def_477 .def_486)))
(let ((.def_490 (or .def_487 .def_489)))
(let ((.def_554 (and .def_490 .def_553)))
(let ((.def_559 (and .def_554 .def_558)))
(let ((.def_580 (and .def_559 .def_579)))
(let ((.def_589 (and .def_580 .def_588)))
(let ((.def_592 (and .def_589 .def_591)))
(let ((.def_596 (and .def_592 .def_595)))
(let ((.def_597 (and .def_426 .def_596)))
(let ((.def_614 (and .def_597 .def_613)))
(let ((.def_618 (and .def_614 .def_617)))
(let ((.def_454 (* .def_87 b.delta__AT2)))
(let ((.def_455 (<= b.speed_y__AT2 .def_454)))
(let ((.def_453 (<= b.speed_y__AT2 0.0 )))
(let ((.def_456 (and .def_453 .def_455)))
(let ((.def_449 (* .def_81 b.delta__AT2)))
(let ((.def_450 (+ b.speed_y__AT2 .def_449)))
(let ((.def_451 (<= 0.0 .def_450)))
(let ((.def_452 (and .def_448 .def_451)))
(let ((.def_457 (or .def_452 .def_456)))
(let ((.def_444 (+ .def_442 .def_443)))
(let ((.def_445 (+ b.y__AT2 .def_444)))
(let ((.def_446 (<= 0.0 .def_445)))
(let ((.def_431 (<= 0.0 b.y__AT2)))
(let ((.def_447 (and .def_431 .def_446)))
(let ((.def_458 (and .def_447 .def_457)))
(let ((.def_459 (and .def_54 .def_458)))
(let ((.def_460 (and .def_62 .def_459)))
(let ((.def_150 (not b.counter.0__AT1)))
(let ((.def_435 (or b.counter.1__AT1 .def_150)))
(let ((.def_145 (not b.counter.2__AT1)))
(let ((.def_436 (or .def_145 .def_435)))
(let ((.def_437 (or b.counter.3__AT1 .def_436)))
(let ((.def_432 (and .def_63 .def_431)))
(let ((.def_429 (or .def_426 .def_428)))
(let ((.def_419 (or .def_318 .def_330)))
(let ((.def_423 (or b.counter.3__AT2 .def_419)))
(let ((.def_420 (or b.counter.2__AT2 .def_419)))
(let ((.def_418 (or .def_325 .def_330)))
(let ((.def_421 (and .def_418 .def_420)))
(let ((.def_422 (or .def_340 .def_421)))
(let ((.def_424 (and .def_422 .def_423)))
(let ((.def_430 (and .def_424 .def_429)))
(let ((.def_433 (and .def_430 .def_432)))
(let ((.def_413 (<= 0.0 b.delta__AT1)))
(let ((.def_248 (not b.EVENT.0__AT1)))
(let ((.def_246 (not b.EVENT.1__AT1)))
(let ((.def_308 (and .def_246 .def_248)))
(let ((.def_309 (not .def_308)))
(let ((.def_414 (or .def_309 .def_413)))
(let ((.def_415 (or b.EVENT.1__AT1 .def_414)))
(let ((.def_362 (= b.counter.0__AT1 b.counter.0__AT2)))
(let ((.def_360 (= b.counter.1__AT1 b.counter.1__AT2)))
(let ((.def_358 (= b.counter.2__AT1 b.counter.2__AT2)))
(let ((.def_357 (= b.counter.3__AT1 b.counter.3__AT2)))
(let ((.def_359 (and .def_357 .def_358)))
(let ((.def_361 (and .def_359 .def_360)))
(let ((.def_363 (and .def_361 .def_362)))
(let ((.def_410 (or .def_309 .def_363)))
(let ((.def_411 (or b.EVENT.1__AT1 .def_410)))
(let ((.def_370 (= b.x__AT1 b.x__AT2)))
(let ((.def_367 (= b.y__AT1 b.y__AT2)))
(let ((.def_404 (and .def_367 .def_370)))
(let ((.def_289 (= b.speed_x__AT1 b.speed_x__AT2)))
(let ((.def_405 (and .def_289 .def_404)))
(let ((.def_356 (= b.speed_y__AT1 b.speed_y__AT2)))
(let ((.def_406 (and .def_356 .def_405)))
(let ((.def_401 (= b.delta__AT1 0.0 )))
(let ((.def_402 (and .def_308 .def_401)))
(let ((.def_403 (not .def_402)))
(let ((.def_407 (or .def_403 .def_406)))
(let ((.def_408 (or b.EVENT.1__AT1 .def_407)))
(let ((.def_381 (= b.time__AT1 b.time__AT2)))
(let ((.def_393 (and .def_370 .def_381)))
(let ((.def_394 (and .def_367 .def_393)))
(let ((.def_395 (and .def_289 .def_394)))
(let ((.def_396 (and .def_356 .def_395)))
(let ((.def_397 (and .def_363 .def_396)))
(let ((.def_398 (or .def_246 .def_397)))
(let ((.def_384 (* (- 1.0) b.time__AT2)))
(let ((.def_387 (+ b.delta__AT1 .def_384)))
(let ((.def_388 (+ b.time__AT1 .def_387)))
(let ((.def_389 (= .def_388 0.0 )))
(let ((.def_390 (or .def_309 .def_389)))
(let ((.def_391 (or b.EVENT.1__AT1 .def_390)))
(let ((.def_382 (or .def_308 .def_381)))
(let ((.def_383 (or b.EVENT.1__AT1 .def_382)))
(let ((.def_392 (and .def_383 .def_391)))
(let ((.def_399 (and .def_392 .def_398)))
(let ((.def_377 (= .def_309 b.event_is_timed__AT2)))
(let ((.def_375 (= b.event_is_timed__AT1 .def_308)))
(let ((.def_378 (and .def_375 .def_377)))
(let ((.def_364 (and .def_356 .def_363)))
(let ((.def_268 (<= 0.0 b.speed_y__AT1)))
(let ((.def_312 (not .def_268)))
(let ((.def_311 (= b.y__AT1 0.0 )))
(let ((.def_313 (and .def_311 .def_312)))
(let ((.def_365 (or .def_313 .def_364)))
(let ((.def_331 (or b.counter.0__AT1 .def_330)))
(let ((.def_329 (or .def_150 b.counter.0__AT2)))
(let ((.def_332 (and .def_329 .def_331)))
(let ((.def_333 (and .def_318 .def_332)))
(let ((.def_334 (or b.counter.1__AT1 .def_333)))
(let ((.def_138 (not b.counter.1__AT1)))
(let ((.def_328 (or .def_138 b.counter.1__AT2)))
(let ((.def_335 (and .def_328 .def_334)))
(let ((.def_348 (and .def_325 .def_335)))
(let ((.def_349 (or b.counter.2__AT1 .def_348)))
(let ((.def_343 (and .def_150 .def_318)))
(let ((.def_344 (or b.counter.1__AT1 .def_343)))
(let ((.def_345 (and .def_328 .def_344)))
(let ((.def_346 (and b.counter.2__AT2 .def_345)))
(let ((.def_347 (or .def_145 .def_346)))
(let ((.def_350 (and .def_347 .def_349)))
(let ((.def_351 (and b.counter.3__AT2 .def_350)))
(let ((.def_352 (or b.counter.3__AT1 .def_351)))
(let ((.def_336 (and b.counter.2__AT2 .def_335)))
(let ((.def_337 (or b.counter.2__AT1 .def_336)))
(let ((.def_322 (or b.counter.1__AT1 b.counter.1__AT2)))
(let ((.def_320 (and .def_318 b.counter.0__AT2)))
(let ((.def_321 (or .def_138 .def_320)))
(let ((.def_323 (and .def_321 .def_322)))
(let ((.def_326 (and .def_323 .def_325)))
(let ((.def_327 (or .def_145 .def_326)))
(let ((.def_338 (and .def_327 .def_337)))
(let ((.def_341 (and .def_338 .def_340)))
(let ((.def_160 (not b.counter.3__AT1)))
(let ((.def_342 (or .def_160 .def_341)))
(let ((.def_353 (and .def_342 .def_352)))
(let ((.def_111 (* (- 1.0) b.speed_y__AT1)))
(let ((.def_315 (* .def_111 .def_133)))
(let ((.def_316 (= b.speed_y__AT2 .def_315)))
(let ((.def_354 (and .def_316 .def_353)))
(let ((.def_314 (not .def_313)))
(let ((.def_355 (or .def_314 .def_354)))
(let ((.def_366 (and .def_355 .def_365)))
(let ((.def_368 (and .def_366 .def_367)))
(let ((.def_369 (and .def_289 .def_368)))
(let ((.def_371 (and .def_369 .def_370)))
(let ((.def_372 (or .def_308 .def_371)))
(let ((.def_373 (or b.EVENT.1__AT1 .def_372)))
(let ((.def_299 (* (- 1.0) b.y__AT2)))
(let ((.def_263 (* b.speed_y__AT1 b.delta__AT1)))
(let ((.def_303 (+ .def_263 .def_299)))
(let ((.def_261 (* b.delta__AT1 b.delta__AT1)))
(let ((.def_262 (* .def_73 .def_261)))
(let ((.def_304 (+ .def_262 .def_303)))
(let ((.def_305 (+ b.y__AT1 .def_304)))
(let ((.def_306 (= .def_305 0.0 )))
(let ((.def_291 (* .def_72 b.delta__AT1)))
(let ((.def_294 (+ .def_291 .def_293)))
(let ((.def_295 (+ b.speed_y__AT1 .def_294)))
(let ((.def_296 (= .def_295 0.0 )))
(let ((.def_284 (* (- 1.0) b.x__AT2)))
(let ((.def_282 (* b.speed_x__AT1 b.delta__AT1)))
(let ((.def_285 (+ .def_282 .def_284)))
(let ((.def_286 (+ b.x__AT1 .def_285)))
(let ((.def_287 (= .def_286 0.0 )))
(let ((.def_290 (and .def_287 .def_289)))
(let ((.def_297 (and .def_290 .def_296)))
(let ((.def_307 (and .def_297 .def_306)))
(let ((.def_310 (or .def_307 .def_309)))
(let ((.def_374 (and .def_310 .def_373)))
(let ((.def_379 (and .def_374 .def_378)))
(let ((.def_400 (and .def_379 .def_399)))
(let ((.def_409 (and .def_400 .def_408)))
(let ((.def_412 (and .def_409 .def_411)))
(let ((.def_416 (and .def_412 .def_415)))
(let ((.def_417 (and .def_246 .def_416)))
(let ((.def_434 (and .def_417 .def_433)))
(let ((.def_438 (and .def_434 .def_437)))
(let ((.def_274 (* .def_87 b.delta__AT1)))
(let ((.def_275 (<= b.speed_y__AT1 .def_274)))
(let ((.def_273 (<= b.speed_y__AT1 0.0 )))
(let ((.def_276 (and .def_273 .def_275)))
(let ((.def_269 (* .def_81 b.delta__AT1)))
(let ((.def_270 (+ b.speed_y__AT1 .def_269)))
(let ((.def_271 (<= 0.0 .def_270)))
(let ((.def_272 (and .def_268 .def_271)))
(let ((.def_277 (or .def_272 .def_276)))
(let ((.def_264 (+ .def_262 .def_263)))
(let ((.def_265 (+ b.y__AT1 .def_264)))
(let ((.def_266 (<= 0.0 .def_265)))
(let ((.def_251 (<= 0.0 b.y__AT1)))
(let ((.def_267 (and .def_251 .def_266)))
(let ((.def_278 (and .def_267 .def_277)))
(let ((.def_279 (and .def_54 .def_278)))
(let ((.def_280 (and .def_62 .def_279)))
(let ((.def_28 (not b.counter.0__AT0)))
(let ((.def_255 (or b.counter.1__AT0 .def_28)))
(let ((.def_31 (not b.counter.2__AT0)))
(let ((.def_256 (or .def_31 .def_255)))
(let ((.def_257 (or b.counter.3__AT0 .def_256)))
(let ((.def_252 (and .def_63 .def_251)))
(let ((.def_249 (or .def_246 .def_248)))
(let ((.def_239 (or .def_138 .def_150)))
(let ((.def_243 (or b.counter.3__AT1 .def_239)))
(let ((.def_240 (or b.counter.2__AT1 .def_239)))
(let ((.def_238 (or .def_145 .def_150)))
(let ((.def_241 (and .def_238 .def_240)))
(let ((.def_242 (or .def_160 .def_241)))
(let ((.def_244 (and .def_242 .def_243)))
(let ((.def_250 (and .def_244 .def_249)))
(let ((.def_253 (and .def_250 .def_252)))
(let ((.def_233 (<= 0.0 b.delta__AT0)))
(let ((.def_47 (not b.EVENT.0__AT0)))
(let ((.def_45 (not b.EVENT.1__AT0)))
(let ((.def_125 (and .def_45 .def_47)))
(let ((.def_126 (not .def_125)))
(let ((.def_234 (or .def_126 .def_233)))
(let ((.def_235 (or b.EVENT.1__AT0 .def_234)))
(let ((.def_182 (= b.counter.0__AT0 b.counter.0__AT1)))
(let ((.def_180 (= b.counter.1__AT0 b.counter.1__AT1)))
(let ((.def_178 (= b.counter.2__AT0 b.counter.2__AT1)))
(let ((.def_177 (= b.counter.3__AT0 b.counter.3__AT1)))
(let ((.def_179 (and .def_177 .def_178)))
(let ((.def_181 (and .def_179 .def_180)))
(let ((.def_183 (and .def_181 .def_182)))
(let ((.def_230 (or .def_126 .def_183)))
(let ((.def_231 (or b.EVENT.1__AT0 .def_230)))
(let ((.def_190 (= b.x__AT1 b.x__AT0)))
(let ((.def_187 (= b.y__AT0 b.y__AT1)))
(let ((.def_224 (and .def_187 .def_190)))
(let ((.def_107 (= b.speed_x__AT0 b.speed_x__AT1)))
(let ((.def_225 (and .def_107 .def_224)))
(let ((.def_176 (= b.speed_y__AT0 b.speed_y__AT1)))
(let ((.def_226 (and .def_176 .def_225)))
(let ((.def_221 (= b.delta__AT0 0.0 )))
(let ((.def_222 (and .def_125 .def_221)))
(let ((.def_223 (not .def_222)))
(let ((.def_227 (or .def_223 .def_226)))
(let ((.def_228 (or b.EVENT.1__AT0 .def_227)))
(let ((.def_201 (= b.time__AT0 b.time__AT1)))
(let ((.def_213 (and .def_190 .def_201)))
(let ((.def_214 (and .def_187 .def_213)))
(let ((.def_215 (and .def_107 .def_214)))
(let ((.def_216 (and .def_176 .def_215)))
(let ((.def_217 (and .def_183 .def_216)))
(let ((.def_218 (or .def_45 .def_217)))
(let ((.def_204 (* (- 1.0) b.time__AT1)))
(let ((.def_207 (+ b.delta__AT0 .def_204)))
(let ((.def_208 (+ b.time__AT0 .def_207)))
(let ((.def_209 (= .def_208 0.0 )))
(let ((.def_210 (or .def_126 .def_209)))
(let ((.def_211 (or b.EVENT.1__AT0 .def_210)))
(let ((.def_202 (or .def_125 .def_201)))
(let ((.def_203 (or b.EVENT.1__AT0 .def_202)))
(let ((.def_212 (and .def_203 .def_211)))
(let ((.def_219 (and .def_212 .def_218)))
(let ((.def_197 (= .def_126 b.event_is_timed__AT1)))
(let ((.def_195 (= b.event_is_timed__AT0 .def_125)))
(let ((.def_198 (and .def_195 .def_197)))
(let ((.def_184 (and .def_176 .def_183)))
(let ((.def_80 (<= 0.0 b.speed_y__AT0)))
(let ((.def_129 (not .def_80)))
(let ((.def_128 (= b.y__AT0 0.0 )))
(let ((.def_130 (and .def_128 .def_129)))
(let ((.def_185 (or .def_130 .def_184)))
(let ((.def_151 (or b.counter.0__AT0 .def_150)))
(let ((.def_149 (or .def_28 b.counter.0__AT1)))
(let ((.def_152 (and .def_149 .def_151)))
(let ((.def_153 (and .def_138 .def_152)))
(let ((.def_154 (or b.counter.1__AT0 .def_153)))
(let ((.def_26 (not b.counter.1__AT0)))
(let ((.def_148 (or .def_26 b.counter.1__AT1)))
(let ((.def_155 (and .def_148 .def_154)))
(let ((.def_168 (and .def_145 .def_155)))
(let ((.def_169 (or b.counter.2__AT0 .def_168)))
(let ((.def_163 (and .def_28 .def_138)))
(let ((.def_164 (or b.counter.1__AT0 .def_163)))
(let ((.def_165 (and .def_148 .def_164)))
(let ((.def_166 (and b.counter.2__AT1 .def_165)))
(let ((.def_167 (or .def_31 .def_166)))
(let ((.def_170 (and .def_167 .def_169)))
(let ((.def_171 (and b.counter.3__AT1 .def_170)))
(let ((.def_172 (or b.counter.3__AT0 .def_171)))
(let ((.def_156 (and b.counter.2__AT1 .def_155)))
(let ((.def_157 (or b.counter.2__AT0 .def_156)))
(let ((.def_142 (or b.counter.1__AT0 b.counter.1__AT1)))
(let ((.def_140 (and .def_138 b.counter.0__AT1)))
(let ((.def_141 (or .def_26 .def_140)))
(let ((.def_143 (and .def_141 .def_142)))
(let ((.def_146 (and .def_143 .def_145)))
(let ((.def_147 (or .def_31 .def_146)))
(let ((.def_158 (and .def_147 .def_157)))
(let ((.def_161 (and .def_158 .def_160)))
(let ((.def_34 (not b.counter.3__AT0)))
(let ((.def_162 (or .def_34 .def_161)))
(let ((.def_173 (and .def_162 .def_172)))
(let ((.def_134 (* (- 1.0) b.speed_y__AT0)))
(let ((.def_135 (* .def_133 .def_134)))
(let ((.def_136 (= b.speed_y__AT1 .def_135)))
(let ((.def_174 (and .def_136 .def_173)))
(let ((.def_131 (not .def_130)))
(let ((.def_175 (or .def_131 .def_174)))
(let ((.def_186 (and .def_175 .def_185)))
(let ((.def_188 (and .def_186 .def_187)))
(let ((.def_189 (and .def_107 .def_188)))
(let ((.def_191 (and .def_189 .def_190)))
(let ((.def_192 (or .def_125 .def_191)))
(let ((.def_193 (or b.EVENT.1__AT0 .def_192)))
(let ((.def_117 (* (- 1.0) b.y__AT1)))
(let ((.def_75 (* b.speed_y__AT0 b.delta__AT0)))
(let ((.def_120 (+ .def_75 .def_117)))
(let ((.def_70 (* b.delta__AT0 b.delta__AT0)))
(let ((.def_74 (* .def_70 .def_73)))
(let ((.def_121 (+ .def_74 .def_120)))
(let ((.def_122 (+ b.y__AT0 .def_121)))
(let ((.def_123 (= .def_122 0.0 )))
(let ((.def_109 (* b.delta__AT0 .def_72)))
(let ((.def_112 (+ .def_109 .def_111)))
(let ((.def_113 (+ b.speed_y__AT0 .def_112)))
(let ((.def_114 (= .def_113 0.0 )))
(let ((.def_99 (* (- 1.0) b.x__AT1)))
(let ((.def_103 (+ .def_99 b.x__AT0)))
(let ((.def_97 (* b.delta__AT0 b.speed_x__AT0)))
(let ((.def_104 (+ .def_97 .def_103)))
(let ((.def_105 (= .def_104 0.0 )))
(let ((.def_108 (and .def_105 .def_107)))
(let ((.def_115 (and .def_108 .def_114)))
(let ((.def_124 (and .def_115 .def_123)))
(let ((.def_127 (or .def_124 .def_126)))
(let ((.def_194 (and .def_127 .def_193)))
(let ((.def_199 (and .def_194 .def_198)))
(let ((.def_220 (and .def_199 .def_219)))
(let ((.def_229 (and .def_220 .def_228)))
(let ((.def_232 (and .def_229 .def_231)))
(let ((.def_236 (and .def_232 .def_235)))
(let ((.def_237 (and .def_45 .def_236)))
(let ((.def_254 (and .def_237 .def_253)))
(let ((.def_258 (and .def_254 .def_257)))
(let ((.def_88 (* b.delta__AT0 .def_87)))
(let ((.def_89 (<= b.speed_y__AT0 .def_88)))
(let ((.def_86 (<= b.speed_y__AT0 0.0 )))
(let ((.def_90 (and .def_86 .def_89)))
(let ((.def_82 (* b.delta__AT0 .def_81)))
(let ((.def_83 (+ b.speed_y__AT0 .def_82)))
(let ((.def_84 (<= 0.0 .def_83)))
(let ((.def_85 (and .def_80 .def_84)))
(let ((.def_91 (or .def_85 .def_90)))
(let ((.def_76 (+ .def_74 .def_75)))
(let ((.def_77 (+ b.y__AT0 .def_76)))
(let ((.def_78 (<= 0.0 .def_77)))
(let ((.def_64 (<= 0.0 b.y__AT0)))
(let ((.def_79 (and .def_64 .def_78)))
(let ((.def_92 (and .def_79 .def_91)))
(let ((.def_93 (and .def_54 .def_92)))
(let ((.def_94 (and .def_62 .def_93)))
(let ((.def_65 (and .def_63 .def_64)))
(let ((.def_48 (or .def_45 .def_47)))
(let ((.def_38 (or .def_26 .def_28)))
(let ((.def_42 (or b.counter.3__AT0 .def_38)))
(let ((.def_39 (or b.counter.2__AT0 .def_38)))
(let ((.def_37 (or .def_28 .def_31)))
(let ((.def_40 (and .def_37 .def_39)))
(let ((.def_41 (or .def_34 .def_40)))
(let ((.def_43 (and .def_41 .def_42)))
(let ((.def_49 (and .def_43 .def_48)))
(let ((.def_66 (and .def_49 .def_65)))
(let ((.def_29 (and .def_26 .def_28)))
(let ((.def_32 (and .def_29 .def_31)))
(let ((.def_35 (and .def_32 .def_34)))
(let ((.def_23 (= b.speed_y__AT0 0.0 )))
(let ((.def_20 (= b.y__AT0 10.0 )))
(let ((.def_15 (= b.time__AT0 0.0 )))
(let ((.def_17 (and .def_15 b.event_is_timed__AT0)))
(let ((.def_21 (and .def_17 .def_20)))
(let ((.def_24 (and .def_21 .def_23)))
(let ((.def_36 (and .def_24 .def_35)))
(let ((.def_67 (and .def_36 .def_66)))
(let ((.def_6 (or .def_4 b.counter.1__AT4)))
(let ((.def_9 (or .def_6 .def_8)))
(let ((.def_11 (or .def_9 b.counter.3__AT4)))
(let ((.def_12 (not .def_11)))
(let ((.def_68 (and .def_12 .def_67)))
(let ((.def_95 (and .def_68 .def_94)))
(let ((.def_259 (and .def_95 .def_258)))
(let ((.def_281 (and .def_259 .def_280)))
(let ((.def_439 (and .def_281 .def_438)))
(let ((.def_461 (and .def_439 .def_460)))
(let ((.def_619 (and .def_461 .def_618)))
(let ((.def_641 (and .def_619 .def_640)))
(let ((.def_793 (and .def_641 .def_792)))
(let ((.def_815 (and .def_793 .def_814)))
.def_815))))))))))))))))))))))))))))))))))))))))))))))))))))))))))))))))))))))))))))))))))))))))))))))))))))))))))))))))))))))))))))))))))))))))))))))))))))))))))))))))))))))))))))))))))))))))))))))))))))))))))))))))))))))))))))))))))))))))))))))))))))))))))))))))))))))))))))))))))))))))))))))))))))))))))))))))))))))))))))))))))))))))))))))))))))))))))))))))))))))))))))))))))))))))))))))))))))))))))))))))))))))))))))))))))))))))))))))))))))))))))))))))))))))))))))))))))))))))))))))))))))))))))))))))))))))))))))))))))))))))))))))))))))))))))))))))))))))))))))))))))))))))))))))))))))))))))))))))))))))))))))))))))))))))))))))))))))))))))))))))))))))))))))))))))))))))))))))))))))))))))))))))))))))))))))))))))))))))))))))
(check-sat)
(exit)
